91	40	52	94	74	31	8	85	34	25	97	84	80	56	84	96	19	13	43	80
86	61	90	52	71	56	16	10	17	94	72	88	95	71	99	11	90	19	87	71
2	63	58	87	86	15	85	74	70	66	11	78	32	28	96	39	67	32	53	48
79	60	49	42	98	92	59	91	16	17	37	72	49	59	34	86	90	81	33	48
72	52	85	91	43	29	41	18	90	8	38	4	45	56	28	71	40	75	33	28
